(set-logic LIA)
(declare-fun coord_x0 () Int)
(declare-fun coord_x1 () Int)
(declare-fun coord_x2 () Int)
(declare-fun coord_x3 () Int)
(declare-fun coord_x4 () Int)
(declare-fun coord_x5 () Int)
(declare-fun coord_x6 () Int)
(declare-fun coord_x7 () Int)
(declare-fun coord_x8 () Int)
(declare-fun coord_x9 () Int)
(declare-fun coord_x10 () Int)
(declare-fun coord_x11 () Int)
(declare-fun coord_y0 () Int)
(declare-fun coord_y1 () Int)
(declare-fun coord_y2 () Int)
(declare-fun coord_y3 () Int)
(declare-fun coord_y4 () Int)
(declare-fun coord_y5 () Int)
(declare-fun coord_y6 () Int)
(declare-fun coord_y7 () Int)
(declare-fun coord_y8 () Int)
(declare-fun coord_y9 () Int)
(declare-fun coord_y10 () Int)
(declare-fun coord_y11 () Int)
(declare-fun l () Int)
(assert (and (>= coord_x0 0) (<= coord_x0 14)))
(assert (and (>= coord_x1 0) (<= coord_x1 14)))
(assert (and (>= coord_x2 0) (<= coord_x2 14)))
(assert (and (>= coord_x3 0) (<= coord_x3 14)))
(assert (and (>= coord_x4 0) (<= coord_x4 14)))
(assert (and (>= coord_x5 0) (<= coord_x5 14)))
(assert (and (>= coord_x6 0) (<= coord_x6 14)))
(assert (and (>= coord_x7 0) (<= coord_x7 14)))
(assert (and (>= coord_x8 0) (<= coord_x8 14)))
(assert (and (>= coord_x9 0) (<= coord_x9 14)))
(assert (and (>= coord_x10 0) (<= coord_x10 14)))
(assert (and (>= coord_x11 0) (<= coord_x11 14)))
(assert (and (>= coord_y0 0) (<= coord_y0 73)))
(assert (and (>= coord_y1 0) (<= coord_y1 73)))
(assert (and (>= coord_y2 0) (<= coord_y2 73)))
(assert (and (>= coord_y3 0) (<= coord_y3 73)))
(assert (and (>= coord_y4 0) (<= coord_y4 73)))
(assert (and (>= coord_y5 0) (<= coord_y5 73)))
(assert (and (>= coord_y6 0) (<= coord_y6 73)))
(assert (and (>= coord_y7 0) (<= coord_y7 73)))
(assert (and (>= coord_y8 0) (<= coord_y8 73)))
(assert (and (>= coord_y9 0) (<= coord_y9 73)))
(assert (and (>= coord_y10 0) (<= coord_y10 73)))
(assert (and (>= coord_y11 0) (<= coord_y11 73)))
(assert (and (>= l 17) (<= l 76)))
(assert (or (<= (+ coord_x0 3) coord_x1) (<= (+ coord_y0 3) coord_y1) (>= (- coord_x0 3) coord_x1) (>= (- coord_y0 4) coord_y1)))
(assert (or (<= (+ coord_x0 3) coord_x2) (<= (+ coord_y0 3) coord_y2) (>= (- coord_x0 3) coord_x2) (>= (- coord_y0 5) coord_y2)))
(assert (or (<= (+ coord_x0 3) coord_x3) (<= (+ coord_y0 3) coord_y3) (>= (- coord_x0 3) coord_x3) (>= (- coord_y0 6) coord_y3)))
(assert (or (<= (+ coord_x0 3) coord_x4) (<= (+ coord_y0 3) coord_y4) (>= (- coord_x0 3) coord_x4) (>= (- coord_y0 7) coord_y4)))
(assert (or (<= (+ coord_x0 3) coord_x5) (<= (+ coord_y0 3) coord_y5) (>= (- coord_x0 3) coord_x5) (>= (- coord_y0 8) coord_y5)))
(assert (or (<= (+ coord_x0 3) coord_x6) (<= (+ coord_y0 3) coord_y6) (>= (- coord_x0 3) coord_x6) (>= (- coord_y0 9) coord_y6)))
(assert (or (<= (+ coord_x0 3) coord_x7) (<= (+ coord_y0 3) coord_y7) (>= (- coord_x0 4) coord_x7) (>= (- coord_y0 3) coord_y7)))
(assert (or (<= (+ coord_x0 3) coord_x8) (<= (+ coord_y0 3) coord_y8) (>= (- coord_x0 4) coord_x8) (>= (- coord_y0 8) coord_y8)))
(assert (or (<= (+ coord_x0 3) coord_x9) (<= (+ coord_y0 3) coord_y9) (>= (- coord_x0 4) coord_x9) (>= (- coord_y0 14) coord_y9)))
(assert (or (<= (+ coord_x0 3) coord_x10) (<= (+ coord_y0 3) coord_y10) (>= (- coord_x0 7) coord_x10) (>= (- coord_y0 3) coord_y10)))
(assert (or (<= (+ coord_x0 3) coord_x11) (<= (+ coord_y0 3) coord_y11) (>= (- coord_x0 7) coord_x11) (>= (- coord_y0 6) coord_y11)))
(assert (or (<= (+ coord_x1 3) coord_x2) (<= (+ coord_y1 4) coord_y2) (>= (- coord_x1 3) coord_x2) (>= (- coord_y1 5) coord_y2)))
(assert (or (<= (+ coord_x1 3) coord_x3) (<= (+ coord_y1 4) coord_y3) (>= (- coord_x1 3) coord_x3) (>= (- coord_y1 6) coord_y3)))
(assert (or (<= (+ coord_x1 3) coord_x4) (<= (+ coord_y1 4) coord_y4) (>= (- coord_x1 3) coord_x4) (>= (- coord_y1 7) coord_y4)))
(assert (or (<= (+ coord_x1 3) coord_x5) (<= (+ coord_y1 4) coord_y5) (>= (- coord_x1 3) coord_x5) (>= (- coord_y1 8) coord_y5)))
(assert (or (<= (+ coord_x1 3) coord_x6) (<= (+ coord_y1 4) coord_y6) (>= (- coord_x1 3) coord_x6) (>= (- coord_y1 9) coord_y6)))
(assert (or (<= (+ coord_x1 3) coord_x7) (<= (+ coord_y1 4) coord_y7) (>= (- coord_x1 4) coord_x7) (>= (- coord_y1 3) coord_y7)))
(assert (or (<= (+ coord_x1 3) coord_x8) (<= (+ coord_y1 4) coord_y8) (>= (- coord_x1 4) coord_x8) (>= (- coord_y1 8) coord_y8)))
(assert (or (<= (+ coord_x1 3) coord_x9) (<= (+ coord_y1 4) coord_y9) (>= (- coord_x1 4) coord_x9) (>= (- coord_y1 14) coord_y9)))
(assert (or (<= (+ coord_x1 3) coord_x10) (<= (+ coord_y1 4) coord_y10) (>= (- coord_x1 7) coord_x10) (>= (- coord_y1 3) coord_y10)))
(assert (or (<= (+ coord_x1 3) coord_x11) (<= (+ coord_y1 4) coord_y11) (>= (- coord_x1 7) coord_x11) (>= (- coord_y1 6) coord_y11)))
(assert (or (<= (+ coord_x2 3) coord_x3) (<= (+ coord_y2 5) coord_y3) (>= (- coord_x2 3) coord_x3) (>= (- coord_y2 6) coord_y3)))
(assert (or (<= (+ coord_x2 3) coord_x4) (<= (+ coord_y2 5) coord_y4) (>= (- coord_x2 3) coord_x4) (>= (- coord_y2 7) coord_y4)))
(assert (or (<= (+ coord_x2 3) coord_x5) (<= (+ coord_y2 5) coord_y5) (>= (- coord_x2 3) coord_x5) (>= (- coord_y2 8) coord_y5)))
(assert (or (<= (+ coord_x2 3) coord_x6) (<= (+ coord_y2 5) coord_y6) (>= (- coord_x2 3) coord_x6) (>= (- coord_y2 9) coord_y6)))
(assert (or (<= (+ coord_x2 3) coord_x7) (<= (+ coord_y2 5) coord_y7) (>= (- coord_x2 4) coord_x7) (>= (- coord_y2 3) coord_y7)))
(assert (or (<= (+ coord_x2 3) coord_x8) (<= (+ coord_y2 5) coord_y8) (>= (- coord_x2 4) coord_x8) (>= (- coord_y2 8) coord_y8)))
(assert (or (<= (+ coord_x2 3) coord_x9) (<= (+ coord_y2 5) coord_y9) (>= (- coord_x2 4) coord_x9) (>= (- coord_y2 14) coord_y9)))
(assert (or (<= (+ coord_x2 3) coord_x10) (<= (+ coord_y2 5) coord_y10) (>= (- coord_x2 7) coord_x10) (>= (- coord_y2 3) coord_y10)))
(assert (or (<= (+ coord_x2 3) coord_x11) (<= (+ coord_y2 5) coord_y11) (>= (- coord_x2 7) coord_x11) (>= (- coord_y2 6) coord_y11)))
(assert (or (<= (+ coord_x3 3) coord_x4) (<= (+ coord_y3 6) coord_y4) (>= (- coord_x3 3) coord_x4) (>= (- coord_y3 7) coord_y4)))
(assert (or (<= (+ coord_x3 3) coord_x5) (<= (+ coord_y3 6) coord_y5) (>= (- coord_x3 3) coord_x5) (>= (- coord_y3 8) coord_y5)))
(assert (or (<= (+ coord_x3 3) coord_x6) (<= (+ coord_y3 6) coord_y6) (>= (- coord_x3 3) coord_x6) (>= (- coord_y3 9) coord_y6)))
(assert (or (<= (+ coord_x3 3) coord_x7) (<= (+ coord_y3 6) coord_y7) (>= (- coord_x3 4) coord_x7) (>= (- coord_y3 3) coord_y7)))
(assert (or (<= (+ coord_x3 3) coord_x8) (<= (+ coord_y3 6) coord_y8) (>= (- coord_x3 4) coord_x8) (>= (- coord_y3 8) coord_y8)))
(assert (or (<= (+ coord_x3 3) coord_x9) (<= (+ coord_y3 6) coord_y9) (>= (- coord_x3 4) coord_x9) (>= (- coord_y3 14) coord_y9)))
(assert (or (<= (+ coord_x3 3) coord_x10) (<= (+ coord_y3 6) coord_y10) (>= (- coord_x3 7) coord_x10) (>= (- coord_y3 3) coord_y10)))
(assert (or (<= (+ coord_x3 3) coord_x11) (<= (+ coord_y3 6) coord_y11) (>= (- coord_x3 7) coord_x11) (>= (- coord_y3 6) coord_y11)))
(assert (or (<= (+ coord_x4 3) coord_x5) (<= (+ coord_y4 7) coord_y5) (>= (- coord_x4 3) coord_x5) (>= (- coord_y4 8) coord_y5)))
(assert (or (<= (+ coord_x4 3) coord_x6) (<= (+ coord_y4 7) coord_y6) (>= (- coord_x4 3) coord_x6) (>= (- coord_y4 9) coord_y6)))
(assert (or (<= (+ coord_x4 3) coord_x7) (<= (+ coord_y4 7) coord_y7) (>= (- coord_x4 4) coord_x7) (>= (- coord_y4 3) coord_y7)))
(assert (or (<= (+ coord_x4 3) coord_x8) (<= (+ coord_y4 7) coord_y8) (>= (- coord_x4 4) coord_x8) (>= (- coord_y4 8) coord_y8)))
(assert (or (<= (+ coord_x4 3) coord_x9) (<= (+ coord_y4 7) coord_y9) (>= (- coord_x4 4) coord_x9) (>= (- coord_y4 14) coord_y9)))
(assert (or (<= (+ coord_x4 3) coord_x10) (<= (+ coord_y4 7) coord_y10) (>= (- coord_x4 7) coord_x10) (>= (- coord_y4 3) coord_y10)))
(assert (or (<= (+ coord_x4 3) coord_x11) (<= (+ coord_y4 7) coord_y11) (>= (- coord_x4 7) coord_x11) (>= (- coord_y4 6) coord_y11)))
(assert (or (<= (+ coord_x5 3) coord_x6) (<= (+ coord_y5 8) coord_y6) (>= (- coord_x5 3) coord_x6) (>= (- coord_y5 9) coord_y6)))
(assert (or (<= (+ coord_x5 3) coord_x7) (<= (+ coord_y5 8) coord_y7) (>= (- coord_x5 4) coord_x7) (>= (- coord_y5 3) coord_y7)))
(assert (or (<= (+ coord_x5 3) coord_x8) (<= (+ coord_y5 8) coord_y8) (>= (- coord_x5 4) coord_x8) (>= (- coord_y5 8) coord_y8)))
(assert (or (<= (+ coord_x5 3) coord_x9) (<= (+ coord_y5 8) coord_y9) (>= (- coord_x5 4) coord_x9) (>= (- coord_y5 14) coord_y9)))
(assert (or (<= (+ coord_x5 3) coord_x10) (<= (+ coord_y5 8) coord_y10) (>= (- coord_x5 7) coord_x10) (>= (- coord_y5 3) coord_y10)))
(assert (or (<= (+ coord_x5 3) coord_x11) (<= (+ coord_y5 8) coord_y11) (>= (- coord_x5 7) coord_x11) (>= (- coord_y5 6) coord_y11)))
(assert (or (<= (+ coord_x6 3) coord_x7) (<= (+ coord_y6 9) coord_y7) (>= (- coord_x6 4) coord_x7) (>= (- coord_y6 3) coord_y7)))
(assert (or (<= (+ coord_x6 3) coord_x8) (<= (+ coord_y6 9) coord_y8) (>= (- coord_x6 4) coord_x8) (>= (- coord_y6 8) coord_y8)))
(assert (or (<= (+ coord_x6 3) coord_x9) (<= (+ coord_y6 9) coord_y9) (>= (- coord_x6 4) coord_x9) (>= (- coord_y6 14) coord_y9)))
(assert (or (<= (+ coord_x6 3) coord_x10) (<= (+ coord_y6 9) coord_y10) (>= (- coord_x6 7) coord_x10) (>= (- coord_y6 3) coord_y10)))
(assert (or (<= (+ coord_x6 3) coord_x11) (<= (+ coord_y6 9) coord_y11) (>= (- coord_x6 7) coord_x11) (>= (- coord_y6 6) coord_y11)))
(assert (or (<= (+ coord_x7 4) coord_x8) (<= (+ coord_y7 3) coord_y8) (>= (- coord_x7 4) coord_x8) (>= (- coord_y7 8) coord_y8)))
(assert (or (<= (+ coord_x7 4) coord_x9) (<= (+ coord_y7 3) coord_y9) (>= (- coord_x7 4) coord_x9) (>= (- coord_y7 14) coord_y9)))
(assert (or (<= (+ coord_x7 4) coord_x10) (<= (+ coord_y7 3) coord_y10) (>= (- coord_x7 7) coord_x10) (>= (- coord_y7 3) coord_y10)))
(assert (or (<= (+ coord_x7 4) coord_x11) (<= (+ coord_y7 3) coord_y11) (>= (- coord_x7 7) coord_x11) (>= (- coord_y7 6) coord_y11)))
(assert (or (<= (+ coord_x8 4) coord_x9) (<= (+ coord_y8 8) coord_y9) (>= (- coord_x8 4) coord_x9) (>= (- coord_y8 14) coord_y9)))
(assert (or (<= (+ coord_x8 4) coord_x10) (<= (+ coord_y8 8) coord_y10) (>= (- coord_x8 7) coord_x10) (>= (- coord_y8 3) coord_y10)))
(assert (or (<= (+ coord_x8 4) coord_x11) (<= (+ coord_y8 8) coord_y11) (>= (- coord_x8 7) coord_x11) (>= (- coord_y8 6) coord_y11)))
(assert (or (<= (+ coord_x9 4) coord_x10) (<= (+ coord_y9 14) coord_y10) (>= (- coord_x9 7) coord_x10) (>= (- coord_y9 3) coord_y10)))
(assert (or (<= (+ coord_x9 4) coord_x11) (<= (+ coord_y9 14) coord_y11) (>= (- coord_x9 7) coord_x11) (>= (- coord_y9 6) coord_y11)))
(assert (or (<= (+ coord_x10 7) coord_x11) (<= (+ coord_y10 3) coord_y11) (>= (- coord_x10 7) coord_x11) (>= (- coord_y10 6) coord_y11)))
(assert (and (<= (+ coord_x0 3) 17) (<= (+ coord_y0 3) l)))
(assert (and (<= (+ coord_x1 3) 17) (<= (+ coord_y1 4) l)))
(assert (and (<= (+ coord_x2 3) 17) (<= (+ coord_y2 5) l)))
(assert (and (<= (+ coord_x3 3) 17) (<= (+ coord_y3 6) l)))
(assert (and (<= (+ coord_x4 3) 17) (<= (+ coord_y4 7) l)))
(assert (and (<= (+ coord_x5 3) 17) (<= (+ coord_y5 8) l)))
(assert (and (<= (+ coord_x6 3) 17) (<= (+ coord_y6 9) l)))
(assert (and (<= (+ coord_x7 4) 17) (<= (+ coord_y7 3) l)))
(assert (and (<= (+ coord_x8 4) 17) (<= (+ coord_y8 8) l)))
(assert (and (<= (+ coord_x9 4) 17) (<= (+ coord_y9 14) l)))
(assert (and (<= (+ coord_x10 7) 17) (<= (+ coord_y10 3) l)))
(assert (and (<= (+ coord_x11 7) 17) (<= (+ coord_y11 6) l)))
(assert (<= (+ (ite (and (<= coord_y0 3) (< 3 (+ coord_y0 3))) 3 0) (ite (and (<= coord_y1 3) (< 3 (+ coord_y1 4))) 3 0) (ite (and (<= coord_y2 3) (< 3 (+ coord_y2 5))) 3 0) (ite (and (<= coord_y3 3) (< 3 (+ coord_y3 6))) 3 0) (ite (and (<= coord_y4 3) (< 3 (+ coord_y4 7))) 3 0) (ite (and (<= coord_y5 3) (< 3 (+ coord_y5 8))) 3 0) (ite (and (<= coord_y6 3) (< 3 (+ coord_y6 9))) 3 0) (ite (and (<= coord_y7 3) (< 3 (+ coord_y7 3))) 4 0) (ite (and (<= coord_y8 3) (< 3 (+ coord_y8 8))) 4 0) (ite (and (<= coord_y9 3) (< 3 (+ coord_y9 14))) 4 0) (ite (and (<= coord_y10 3) (< 3 (+ coord_y10 3))) 7 0) (ite (and (<= coord_y11 3) (< 3 (+ coord_y11 6))) 7 0)) 17))
(assert (<= (+ (ite (and (<= coord_y0 3) (< 3 (+ coord_y0 3))) 3 0) (ite (and (<= coord_y1 3) (< 3 (+ coord_y1 4))) 3 0) (ite (and (<= coord_y2 3) (< 3 (+ coord_y2 5))) 3 0) (ite (and (<= coord_y3 3) (< 3 (+ coord_y3 6))) 3 0) (ite (and (<= coord_y4 3) (< 3 (+ coord_y4 7))) 3 0) (ite (and (<= coord_y5 3) (< 3 (+ coord_y5 8))) 3 0) (ite (and (<= coord_y6 3) (< 3 (+ coord_y6 9))) 3 0) (ite (and (<= coord_y7 3) (< 3 (+ coord_y7 3))) 4 0) (ite (and (<= coord_y8 3) (< 3 (+ coord_y8 8))) 4 0) (ite (and (<= coord_y9 3) (< 3 (+ coord_y9 14))) 4 0) (ite (and (<= coord_y10 3) (< 3 (+ coord_y10 3))) 7 0) (ite (and (<= coord_y11 3) (< 3 (+ coord_y11 6))) 7 0)) 17))
(assert (<= (+ (ite (and (<= coord_y0 3) (< 3 (+ coord_y0 3))) 3 0) (ite (and (<= coord_y1 3) (< 3 (+ coord_y1 4))) 3 0) (ite (and (<= coord_y2 3) (< 3 (+ coord_y2 5))) 3 0) (ite (and (<= coord_y3 3) (< 3 (+ coord_y3 6))) 3 0) (ite (and (<= coord_y4 3) (< 3 (+ coord_y4 7))) 3 0) (ite (and (<= coord_y5 3) (< 3 (+ coord_y5 8))) 3 0) (ite (and (<= coord_y6 3) (< 3 (+ coord_y6 9))) 3 0) (ite (and (<= coord_y7 3) (< 3 (+ coord_y7 3))) 4 0) (ite (and (<= coord_y8 3) (< 3 (+ coord_y8 8))) 4 0) (ite (and (<= coord_y9 3) (< 3 (+ coord_y9 14))) 4 0) (ite (and (<= coord_y10 3) (< 3 (+ coord_y10 3))) 7 0) (ite (and (<= coord_y11 3) (< 3 (+ coord_y11 6))) 7 0)) 17))
(assert (<= (+ (ite (and (<= coord_y0 3) (< 3 (+ coord_y0 3))) 3 0) (ite (and (<= coord_y1 3) (< 3 (+ coord_y1 4))) 3 0) (ite (and (<= coord_y2 3) (< 3 (+ coord_y2 5))) 3 0) (ite (and (<= coord_y3 3) (< 3 (+ coord_y3 6))) 3 0) (ite (and (<= coord_y4 3) (< 3 (+ coord_y4 7))) 3 0) (ite (and (<= coord_y5 3) (< 3 (+ coord_y5 8))) 3 0) (ite (and (<= coord_y6 3) (< 3 (+ coord_y6 9))) 3 0) (ite (and (<= coord_y7 3) (< 3 (+ coord_y7 3))) 4 0) (ite (and (<= coord_y8 3) (< 3 (+ coord_y8 8))) 4 0) (ite (and (<= coord_y9 3) (< 3 (+ coord_y9 14))) 4 0) (ite (and (<= coord_y10 3) (< 3 (+ coord_y10 3))) 7 0) (ite (and (<= coord_y11 3) (< 3 (+ coord_y11 6))) 7 0)) 17))
(assert (<= (+ (ite (and (<= coord_y0 3) (< 3 (+ coord_y0 3))) 3 0) (ite (and (<= coord_y1 3) (< 3 (+ coord_y1 4))) 3 0) (ite (and (<= coord_y2 3) (< 3 (+ coord_y2 5))) 3 0) (ite (and (<= coord_y3 3) (< 3 (+ coord_y3 6))) 3 0) (ite (and (<= coord_y4 3) (< 3 (+ coord_y4 7))) 3 0) (ite (and (<= coord_y5 3) (< 3 (+ coord_y5 8))) 3 0) (ite (and (<= coord_y6 3) (< 3 (+ coord_y6 9))) 3 0) (ite (and (<= coord_y7 3) (< 3 (+ coord_y7 3))) 4 0) (ite (and (<= coord_y8 3) (< 3 (+ coord_y8 8))) 4 0) (ite (and (<= coord_y9 3) (< 3 (+ coord_y9 14))) 4 0) (ite (and (<= coord_y10 3) (< 3 (+ coord_y10 3))) 7 0) (ite (and (<= coord_y11 3) (< 3 (+ coord_y11 6))) 7 0)) 17))
(assert (<= (+ (ite (and (<= coord_y0 3) (< 3 (+ coord_y0 3))) 3 0) (ite (and (<= coord_y1 3) (< 3 (+ coord_y1 4))) 3 0) (ite (and (<= coord_y2 3) (< 3 (+ coord_y2 5))) 3 0) (ite (and (<= coord_y3 3) (< 3 (+ coord_y3 6))) 3 0) (ite (and (<= coord_y4 3) (< 3 (+ coord_y4 7))) 3 0) (ite (and (<= coord_y5 3) (< 3 (+ coord_y5 8))) 3 0) (ite (and (<= coord_y6 3) (< 3 (+ coord_y6 9))) 3 0) (ite (and (<= coord_y7 3) (< 3 (+ coord_y7 3))) 4 0) (ite (and (<= coord_y8 3) (< 3 (+ coord_y8 8))) 4 0) (ite (and (<= coord_y9 3) (< 3 (+ coord_y9 14))) 4 0) (ite (and (<= coord_y10 3) (< 3 (+ coord_y10 3))) 7 0) (ite (and (<= coord_y11 3) (< 3 (+ coord_y11 6))) 7 0)) 17))
(assert (<= (+ (ite (and (<= coord_y0 3) (< 3 (+ coord_y0 3))) 3 0) (ite (and (<= coord_y1 3) (< 3 (+ coord_y1 4))) 3 0) (ite (and (<= coord_y2 3) (< 3 (+ coord_y2 5))) 3 0) (ite (and (<= coord_y3 3) (< 3 (+ coord_y3 6))) 3 0) (ite (and (<= coord_y4 3) (< 3 (+ coord_y4 7))) 3 0) (ite (and (<= coord_y5 3) (< 3 (+ coord_y5 8))) 3 0) (ite (and (<= coord_y6 3) (< 3 (+ coord_y6 9))) 3 0) (ite (and (<= coord_y7 3) (< 3 (+ coord_y7 3))) 4 0) (ite (and (<= coord_y8 3) (< 3 (+ coord_y8 8))) 4 0) (ite (and (<= coord_y9 3) (< 3 (+ coord_y9 14))) 4 0) (ite (and (<= coord_y10 3) (< 3 (+ coord_y10 3))) 7 0) (ite (and (<= coord_y11 3) (< 3 (+ coord_y11 6))) 7 0)) 17))
(assert (<= (+ (ite (and (<= coord_y0 4) (< 4 (+ coord_y0 3))) 3 0) (ite (and (<= coord_y1 4) (< 4 (+ coord_y1 4))) 3 0) (ite (and (<= coord_y2 4) (< 4 (+ coord_y2 5))) 3 0) (ite (and (<= coord_y3 4) (< 4 (+ coord_y3 6))) 3 0) (ite (and (<= coord_y4 4) (< 4 (+ coord_y4 7))) 3 0) (ite (and (<= coord_y5 4) (< 4 (+ coord_y5 8))) 3 0) (ite (and (<= coord_y6 4) (< 4 (+ coord_y6 9))) 3 0) (ite (and (<= coord_y7 4) (< 4 (+ coord_y7 3))) 4 0) (ite (and (<= coord_y8 4) (< 4 (+ coord_y8 8))) 4 0) (ite (and (<= coord_y9 4) (< 4 (+ coord_y9 14))) 4 0) (ite (and (<= coord_y10 4) (< 4 (+ coord_y10 3))) 7 0) (ite (and (<= coord_y11 4) (< 4 (+ coord_y11 6))) 7 0)) 17))
(assert (<= (+ (ite (and (<= coord_y0 4) (< 4 (+ coord_y0 3))) 3 0) (ite (and (<= coord_y1 4) (< 4 (+ coord_y1 4))) 3 0) (ite (and (<= coord_y2 4) (< 4 (+ coord_y2 5))) 3 0) (ite (and (<= coord_y3 4) (< 4 (+ coord_y3 6))) 3 0) (ite (and (<= coord_y4 4) (< 4 (+ coord_y4 7))) 3 0) (ite (and (<= coord_y5 4) (< 4 (+ coord_y5 8))) 3 0) (ite (and (<= coord_y6 4) (< 4 (+ coord_y6 9))) 3 0) (ite (and (<= coord_y7 4) (< 4 (+ coord_y7 3))) 4 0) (ite (and (<= coord_y8 4) (< 4 (+ coord_y8 8))) 4 0) (ite (and (<= coord_y9 4) (< 4 (+ coord_y9 14))) 4 0) (ite (and (<= coord_y10 4) (< 4 (+ coord_y10 3))) 7 0) (ite (and (<= coord_y11 4) (< 4 (+ coord_y11 6))) 7 0)) 17))
(assert (<= (+ (ite (and (<= coord_y0 4) (< 4 (+ coord_y0 3))) 3 0) (ite (and (<= coord_y1 4) (< 4 (+ coord_y1 4))) 3 0) (ite (and (<= coord_y2 4) (< 4 (+ coord_y2 5))) 3 0) (ite (and (<= coord_y3 4) (< 4 (+ coord_y3 6))) 3 0) (ite (and (<= coord_y4 4) (< 4 (+ coord_y4 7))) 3 0) (ite (and (<= coord_y5 4) (< 4 (+ coord_y5 8))) 3 0) (ite (and (<= coord_y6 4) (< 4 (+ coord_y6 9))) 3 0) (ite (and (<= coord_y7 4) (< 4 (+ coord_y7 3))) 4 0) (ite (and (<= coord_y8 4) (< 4 (+ coord_y8 8))) 4 0) (ite (and (<= coord_y9 4) (< 4 (+ coord_y9 14))) 4 0) (ite (and (<= coord_y10 4) (< 4 (+ coord_y10 3))) 7 0) (ite (and (<= coord_y11 4) (< 4 (+ coord_y11 6))) 7 0)) 17))
(assert (<= (+ (ite (and (<= coord_y0 7) (< 7 (+ coord_y0 3))) 3 0) (ite (and (<= coord_y1 7) (< 7 (+ coord_y1 4))) 3 0) (ite (and (<= coord_y2 7) (< 7 (+ coord_y2 5))) 3 0) (ite (and (<= coord_y3 7) (< 7 (+ coord_y3 6))) 3 0) (ite (and (<= coord_y4 7) (< 7 (+ coord_y4 7))) 3 0) (ite (and (<= coord_y5 7) (< 7 (+ coord_y5 8))) 3 0) (ite (and (<= coord_y6 7) (< 7 (+ coord_y6 9))) 3 0) (ite (and (<= coord_y7 7) (< 7 (+ coord_y7 3))) 4 0) (ite (and (<= coord_y8 7) (< 7 (+ coord_y8 8))) 4 0) (ite (and (<= coord_y9 7) (< 7 (+ coord_y9 14))) 4 0) (ite (and (<= coord_y10 7) (< 7 (+ coord_y10 3))) 7 0) (ite (and (<= coord_y11 7) (< 7 (+ coord_y11 6))) 7 0)) 17))
(assert (<= (+ (ite (and (<= coord_y0 7) (< 7 (+ coord_y0 3))) 3 0) (ite (and (<= coord_y1 7) (< 7 (+ coord_y1 4))) 3 0) (ite (and (<= coord_y2 7) (< 7 (+ coord_y2 5))) 3 0) (ite (and (<= coord_y3 7) (< 7 (+ coord_y3 6))) 3 0) (ite (and (<= coord_y4 7) (< 7 (+ coord_y4 7))) 3 0) (ite (and (<= coord_y5 7) (< 7 (+ coord_y5 8))) 3 0) (ite (and (<= coord_y6 7) (< 7 (+ coord_y6 9))) 3 0) (ite (and (<= coord_y7 7) (< 7 (+ coord_y7 3))) 4 0) (ite (and (<= coord_y8 7) (< 7 (+ coord_y8 8))) 4 0) (ite (and (<= coord_y9 7) (< 7 (+ coord_y9 14))) 4 0) (ite (and (<= coord_y10 7) (< 7 (+ coord_y10 3))) 7 0) (ite (and (<= coord_y11 7) (< 7 (+ coord_y11 6))) 7 0)) 17))
(assert (<= (+ (ite (and (<= coord_x0 3) (< 3 (+ coord_x0 3))) 3 0) (ite (and (<= coord_x1 3) (< 3 (+ coord_x1 3))) 4 0) (ite (and (<= coord_x2 3) (< 3 (+ coord_x2 3))) 5 0) (ite (and (<= coord_x3 3) (< 3 (+ coord_x3 3))) 6 0) (ite (and (<= coord_x4 3) (< 3 (+ coord_x4 3))) 7 0) (ite (and (<= coord_x5 3) (< 3 (+ coord_x5 3))) 8 0) (ite (and (<= coord_x6 3) (< 3 (+ coord_x6 3))) 9 0) (ite (and (<= coord_x7 3) (< 3 (+ coord_x7 4))) 3 0) (ite (and (<= coord_x8 3) (< 3 (+ coord_x8 4))) 8 0) (ite (and (<= coord_x9 3) (< 3 (+ coord_x9 4))) 14 0) (ite (and (<= coord_x10 3) (< 3 (+ coord_x10 7))) 3 0) (ite (and (<= coord_x11 3) (< 3 (+ coord_x11 7))) 6 0)) l))
(assert (<= (+ (ite (and (<= coord_x0 4) (< 4 (+ coord_x0 3))) 3 0) (ite (and (<= coord_x1 4) (< 4 (+ coord_x1 3))) 4 0) (ite (and (<= coord_x2 4) (< 4 (+ coord_x2 3))) 5 0) (ite (and (<= coord_x3 4) (< 4 (+ coord_x3 3))) 6 0) (ite (and (<= coord_x4 4) (< 4 (+ coord_x4 3))) 7 0) (ite (and (<= coord_x5 4) (< 4 (+ coord_x5 3))) 8 0) (ite (and (<= coord_x6 4) (< 4 (+ coord_x6 3))) 9 0) (ite (and (<= coord_x7 4) (< 4 (+ coord_x7 4))) 3 0) (ite (and (<= coord_x8 4) (< 4 (+ coord_x8 4))) 8 0) (ite (and (<= coord_x9 4) (< 4 (+ coord_x9 4))) 14 0) (ite (and (<= coord_x10 4) (< 4 (+ coord_x10 7))) 3 0) (ite (and (<= coord_x11 4) (< 4 (+ coord_x11 7))) 6 0)) l))
(assert (<= (+ (ite (and (<= coord_x0 5) (< 5 (+ coord_x0 3))) 3 0) (ite (and (<= coord_x1 5) (< 5 (+ coord_x1 3))) 4 0) (ite (and (<= coord_x2 5) (< 5 (+ coord_x2 3))) 5 0) (ite (and (<= coord_x3 5) (< 5 (+ coord_x3 3))) 6 0) (ite (and (<= coord_x4 5) (< 5 (+ coord_x4 3))) 7 0) (ite (and (<= coord_x5 5) (< 5 (+ coord_x5 3))) 8 0) (ite (and (<= coord_x6 5) (< 5 (+ coord_x6 3))) 9 0) (ite (and (<= coord_x7 5) (< 5 (+ coord_x7 4))) 3 0) (ite (and (<= coord_x8 5) (< 5 (+ coord_x8 4))) 8 0) (ite (and (<= coord_x9 5) (< 5 (+ coord_x9 4))) 14 0) (ite (and (<= coord_x10 5) (< 5 (+ coord_x10 7))) 3 0) (ite (and (<= coord_x11 5) (< 5 (+ coord_x11 7))) 6 0)) l))
(assert (<= (+ (ite (and (<= coord_x0 6) (< 6 (+ coord_x0 3))) 3 0) (ite (and (<= coord_x1 6) (< 6 (+ coord_x1 3))) 4 0) (ite (and (<= coord_x2 6) (< 6 (+ coord_x2 3))) 5 0) (ite (and (<= coord_x3 6) (< 6 (+ coord_x3 3))) 6 0) (ite (and (<= coord_x4 6) (< 6 (+ coord_x4 3))) 7 0) (ite (and (<= coord_x5 6) (< 6 (+ coord_x5 3))) 8 0) (ite (and (<= coord_x6 6) (< 6 (+ coord_x6 3))) 9 0) (ite (and (<= coord_x7 6) (< 6 (+ coord_x7 4))) 3 0) (ite (and (<= coord_x8 6) (< 6 (+ coord_x8 4))) 8 0) (ite (and (<= coord_x9 6) (< 6 (+ coord_x9 4))) 14 0) (ite (and (<= coord_x10 6) (< 6 (+ coord_x10 7))) 3 0) (ite (and (<= coord_x11 6) (< 6 (+ coord_x11 7))) 6 0)) l))
(assert (<= (+ (ite (and (<= coord_x0 7) (< 7 (+ coord_x0 3))) 3 0) (ite (and (<= coord_x1 7) (< 7 (+ coord_x1 3))) 4 0) (ite (and (<= coord_x2 7) (< 7 (+ coord_x2 3))) 5 0) (ite (and (<= coord_x3 7) (< 7 (+ coord_x3 3))) 6 0) (ite (and (<= coord_x4 7) (< 7 (+ coord_x4 3))) 7 0) (ite (and (<= coord_x5 7) (< 7 (+ coord_x5 3))) 8 0) (ite (and (<= coord_x6 7) (< 7 (+ coord_x6 3))) 9 0) (ite (and (<= coord_x7 7) (< 7 (+ coord_x7 4))) 3 0) (ite (and (<= coord_x8 7) (< 7 (+ coord_x8 4))) 8 0) (ite (and (<= coord_x9 7) (< 7 (+ coord_x9 4))) 14 0) (ite (and (<= coord_x10 7) (< 7 (+ coord_x10 7))) 3 0) (ite (and (<= coord_x11 7) (< 7 (+ coord_x11 7))) 6 0)) l))
(assert (<= (+ (ite (and (<= coord_x0 8) (< 8 (+ coord_x0 3))) 3 0) (ite (and (<= coord_x1 8) (< 8 (+ coord_x1 3))) 4 0) (ite (and (<= coord_x2 8) (< 8 (+ coord_x2 3))) 5 0) (ite (and (<= coord_x3 8) (< 8 (+ coord_x3 3))) 6 0) (ite (and (<= coord_x4 8) (< 8 (+ coord_x4 3))) 7 0) (ite (and (<= coord_x5 8) (< 8 (+ coord_x5 3))) 8 0) (ite (and (<= coord_x6 8) (< 8 (+ coord_x6 3))) 9 0) (ite (and (<= coord_x7 8) (< 8 (+ coord_x7 4))) 3 0) (ite (and (<= coord_x8 8) (< 8 (+ coord_x8 4))) 8 0) (ite (and (<= coord_x9 8) (< 8 (+ coord_x9 4))) 14 0) (ite (and (<= coord_x10 8) (< 8 (+ coord_x10 7))) 3 0) (ite (and (<= coord_x11 8) (< 8 (+ coord_x11 7))) 6 0)) l))
(assert (<= (+ (ite (and (<= coord_x0 9) (< 9 (+ coord_x0 3))) 3 0) (ite (and (<= coord_x1 9) (< 9 (+ coord_x1 3))) 4 0) (ite (and (<= coord_x2 9) (< 9 (+ coord_x2 3))) 5 0) (ite (and (<= coord_x3 9) (< 9 (+ coord_x3 3))) 6 0) (ite (and (<= coord_x4 9) (< 9 (+ coord_x4 3))) 7 0) (ite (and (<= coord_x5 9) (< 9 (+ coord_x5 3))) 8 0) (ite (and (<= coord_x6 9) (< 9 (+ coord_x6 3))) 9 0) (ite (and (<= coord_x7 9) (< 9 (+ coord_x7 4))) 3 0) (ite (and (<= coord_x8 9) (< 9 (+ coord_x8 4))) 8 0) (ite (and (<= coord_x9 9) (< 9 (+ coord_x9 4))) 14 0) (ite (and (<= coord_x10 9) (< 9 (+ coord_x10 7))) 3 0) (ite (and (<= coord_x11 9) (< 9 (+ coord_x11 7))) 6 0)) l))
(assert (<= (+ (ite (and (<= coord_x0 3) (< 3 (+ coord_x0 3))) 3 0) (ite (and (<= coord_x1 3) (< 3 (+ coord_x1 3))) 4 0) (ite (and (<= coord_x2 3) (< 3 (+ coord_x2 3))) 5 0) (ite (and (<= coord_x3 3) (< 3 (+ coord_x3 3))) 6 0) (ite (and (<= coord_x4 3) (< 3 (+ coord_x4 3))) 7 0) (ite (and (<= coord_x5 3) (< 3 (+ coord_x5 3))) 8 0) (ite (and (<= coord_x6 3) (< 3 (+ coord_x6 3))) 9 0) (ite (and (<= coord_x7 3) (< 3 (+ coord_x7 4))) 3 0) (ite (and (<= coord_x8 3) (< 3 (+ coord_x8 4))) 8 0) (ite (and (<= coord_x9 3) (< 3 (+ coord_x9 4))) 14 0) (ite (and (<= coord_x10 3) (< 3 (+ coord_x10 7))) 3 0) (ite (and (<= coord_x11 3) (< 3 (+ coord_x11 7))) 6 0)) l))
(assert (<= (+ (ite (and (<= coord_x0 8) (< 8 (+ coord_x0 3))) 3 0) (ite (and (<= coord_x1 8) (< 8 (+ coord_x1 3))) 4 0) (ite (and (<= coord_x2 8) (< 8 (+ coord_x2 3))) 5 0) (ite (and (<= coord_x3 8) (< 8 (+ coord_x3 3))) 6 0) (ite (and (<= coord_x4 8) (< 8 (+ coord_x4 3))) 7 0) (ite (and (<= coord_x5 8) (< 8 (+ coord_x5 3))) 8 0) (ite (and (<= coord_x6 8) (< 8 (+ coord_x6 3))) 9 0) (ite (and (<= coord_x7 8) (< 8 (+ coord_x7 4))) 3 0) (ite (and (<= coord_x8 8) (< 8 (+ coord_x8 4))) 8 0) (ite (and (<= coord_x9 8) (< 8 (+ coord_x9 4))) 14 0) (ite (and (<= coord_x10 8) (< 8 (+ coord_x10 7))) 3 0) (ite (and (<= coord_x11 8) (< 8 (+ coord_x11 7))) 6 0)) l))
(assert (<= (+ (ite (and (<= coord_x0 14) (< 14 (+ coord_x0 3))) 3 0) (ite (and (<= coord_x1 14) (< 14 (+ coord_x1 3))) 4 0) (ite (and (<= coord_x2 14) (< 14 (+ coord_x2 3))) 5 0) (ite (and (<= coord_x3 14) (< 14 (+ coord_x3 3))) 6 0) (ite (and (<= coord_x4 14) (< 14 (+ coord_x4 3))) 7 0) (ite (and (<= coord_x5 14) (< 14 (+ coord_x5 3))) 8 0) (ite (and (<= coord_x6 14) (< 14 (+ coord_x6 3))) 9 0) (ite (and (<= coord_x7 14) (< 14 (+ coord_x7 4))) 3 0) (ite (and (<= coord_x8 14) (< 14 (+ coord_x8 4))) 8 0) (ite (and (<= coord_x9 14) (< 14 (+ coord_x9 4))) 14 0) (ite (and (<= coord_x10 14) (< 14 (+ coord_x10 7))) 3 0) (ite (and (<= coord_x11 14) (< 14 (+ coord_x11 7))) 6 0)) l))
(assert (<= (+ (ite (and (<= coord_x0 3) (< 3 (+ coord_x0 3))) 3 0) (ite (and (<= coord_x1 3) (< 3 (+ coord_x1 3))) 4 0) (ite (and (<= coord_x2 3) (< 3 (+ coord_x2 3))) 5 0) (ite (and (<= coord_x3 3) (< 3 (+ coord_x3 3))) 6 0) (ite (and (<= coord_x4 3) (< 3 (+ coord_x4 3))) 7 0) (ite (and (<= coord_x5 3) (< 3 (+ coord_x5 3))) 8 0) (ite (and (<= coord_x6 3) (< 3 (+ coord_x6 3))) 9 0) (ite (and (<= coord_x7 3) (< 3 (+ coord_x7 4))) 3 0) (ite (and (<= coord_x8 3) (< 3 (+ coord_x8 4))) 8 0) (ite (and (<= coord_x9 3) (< 3 (+ coord_x9 4))) 14 0) (ite (and (<= coord_x10 3) (< 3 (+ coord_x10 7))) 3 0) (ite (and (<= coord_x11 3) (< 3 (+ coord_x11 7))) 6 0)) l))
(assert (<= (+ (ite (and (<= coord_x0 6) (< 6 (+ coord_x0 3))) 3 0) (ite (and (<= coord_x1 6) (< 6 (+ coord_x1 3))) 4 0) (ite (and (<= coord_x2 6) (< 6 (+ coord_x2 3))) 5 0) (ite (and (<= coord_x3 6) (< 6 (+ coord_x3 3))) 6 0) (ite (and (<= coord_x4 6) (< 6 (+ coord_x4 3))) 7 0) (ite (and (<= coord_x5 6) (< 6 (+ coord_x5 3))) 8 0) (ite (and (<= coord_x6 6) (< 6 (+ coord_x6 3))) 9 0) (ite (and (<= coord_x7 6) (< 6 (+ coord_x7 4))) 3 0) (ite (and (<= coord_x8 6) (< 6 (+ coord_x8 4))) 8 0) (ite (and (<= coord_x9 6) (< 6 (+ coord_x9 4))) 14 0) (ite (and (<= coord_x10 6) (< 6 (+ coord_x10 7))) 3 0) (ite (and (<= coord_x11 6) (< 6 (+ coord_x11 7))) 6 0)) l))
(assert (ite (and (= 3 3) (= 3 4)) (<= coord_x0 coord_x1) true))
(assert (ite (and (= 3 3) (= 3 5)) (<= coord_x0 coord_x2) true))
(assert (ite (and (= 3 3) (= 3 6)) (<= coord_x0 coord_x3) true))
(assert (ite (and (= 3 3) (= 3 7)) (<= coord_x0 coord_x4) true))
(assert (ite (and (= 3 3) (= 3 8)) (<= coord_x0 coord_x5) true))
(assert (ite (and (= 3 3) (= 3 9)) (<= coord_x0 coord_x6) true))
(assert (ite (and (= 3 4) (= 3 3)) (<= coord_x0 coord_x7) true))
(assert (ite (and (= 3 4) (= 3 8)) (<= coord_x0 coord_x8) true))
(assert (ite (and (= 3 4) (= 3 14)) (<= coord_x0 coord_x9) true))
(assert (ite (and (= 3 7) (= 3 3)) (<= coord_x0 coord_x10) true))
(assert (ite (and (= 3 7) (= 3 6)) (<= coord_x0 coord_x11) true))
(assert (ite (and (= 3 3) (= 4 5)) (<= coord_x1 coord_x2) true))
(assert (ite (and (= 3 3) (= 4 6)) (<= coord_x1 coord_x3) true))
(assert (ite (and (= 3 3) (= 4 7)) (<= coord_x1 coord_x4) true))
(assert (ite (and (= 3 3) (= 4 8)) (<= coord_x1 coord_x5) true))
(assert (ite (and (= 3 3) (= 4 9)) (<= coord_x1 coord_x6) true))
(assert (ite (and (= 3 4) (= 4 3)) (<= coord_x1 coord_x7) true))
(assert (ite (and (= 3 4) (= 4 8)) (<= coord_x1 coord_x8) true))
(assert (ite (and (= 3 4) (= 4 14)) (<= coord_x1 coord_x9) true))
(assert (ite (and (= 3 7) (= 4 3)) (<= coord_x1 coord_x10) true))
(assert (ite (and (= 3 7) (= 4 6)) (<= coord_x1 coord_x11) true))
(assert (ite (and (= 3 3) (= 5 6)) (<= coord_x2 coord_x3) true))
(assert (ite (and (= 3 3) (= 5 7)) (<= coord_x2 coord_x4) true))
(assert (ite (and (= 3 3) (= 5 8)) (<= coord_x2 coord_x5) true))
(assert (ite (and (= 3 3) (= 5 9)) (<= coord_x2 coord_x6) true))
(assert (ite (and (= 3 4) (= 5 3)) (<= coord_x2 coord_x7) true))
(assert (ite (and (= 3 4) (= 5 8)) (<= coord_x2 coord_x8) true))
(assert (ite (and (= 3 4) (= 5 14)) (<= coord_x2 coord_x9) true))
(assert (ite (and (= 3 7) (= 5 3)) (<= coord_x2 coord_x10) true))
(assert (ite (and (= 3 7) (= 5 6)) (<= coord_x2 coord_x11) true))
(assert (ite (and (= 3 3) (= 6 7)) (<= coord_x3 coord_x4) true))
(assert (ite (and (= 3 3) (= 6 8)) (<= coord_x3 coord_x5) true))
(assert (ite (and (= 3 3) (= 6 9)) (<= coord_x3 coord_x6) true))
(assert (ite (and (= 3 4) (= 6 3)) (<= coord_x3 coord_x7) true))
(assert (ite (and (= 3 4) (= 6 8)) (<= coord_x3 coord_x8) true))
(assert (ite (and (= 3 4) (= 6 14)) (<= coord_x3 coord_x9) true))
(assert (ite (and (= 3 7) (= 6 3)) (<= coord_x3 coord_x10) true))
(assert (ite (and (= 3 7) (= 6 6)) (<= coord_x3 coord_x11) true))
(assert (ite (and (= 3 3) (= 7 8)) (<= coord_x4 coord_x5) true))
(assert (ite (and (= 3 3) (= 7 9)) (<= coord_x4 coord_x6) true))
(assert (ite (and (= 3 4) (= 7 3)) (<= coord_x4 coord_x7) true))
(assert (ite (and (= 3 4) (= 7 8)) (<= coord_x4 coord_x8) true))
(assert (ite (and (= 3 4) (= 7 14)) (<= coord_x4 coord_x9) true))
(assert (ite (and (= 3 7) (= 7 3)) (<= coord_x4 coord_x10) true))
(assert (ite (and (= 3 7) (= 7 6)) (<= coord_x4 coord_x11) true))
(assert (ite (and (= 3 3) (= 8 9)) (<= coord_x5 coord_x6) true))
(assert (ite (and (= 3 4) (= 8 3)) (<= coord_x5 coord_x7) true))
(assert (ite (and (= 3 4) (= 8 8)) (<= coord_x5 coord_x8) true))
(assert (ite (and (= 3 4) (= 8 14)) (<= coord_x5 coord_x9) true))
(assert (ite (and (= 3 7) (= 8 3)) (<= coord_x5 coord_x10) true))
(assert (ite (and (= 3 7) (= 8 6)) (<= coord_x5 coord_x11) true))
(assert (ite (and (= 3 4) (= 9 3)) (<= coord_x6 coord_x7) true))
(assert (ite (and (= 3 4) (= 9 8)) (<= coord_x6 coord_x8) true))
(assert (ite (and (= 3 4) (= 9 14)) (<= coord_x6 coord_x9) true))
(assert (ite (and (= 3 7) (= 9 3)) (<= coord_x6 coord_x10) true))
(assert (ite (and (= 3 7) (= 9 6)) (<= coord_x6 coord_x11) true))
(assert (ite (and (= 4 4) (= 3 8)) (<= coord_x7 coord_x8) true))
(assert (ite (and (= 4 4) (= 3 14)) (<= coord_x7 coord_x9) true))
(assert (ite (and (= 4 7) (= 3 3)) (<= coord_x7 coord_x10) true))
(assert (ite (and (= 4 7) (= 3 6)) (<= coord_x7 coord_x11) true))
(assert (ite (and (= 4 4) (= 8 14)) (<= coord_x8 coord_x9) true))
(assert (ite (and (= 4 7) (= 8 3)) (<= coord_x8 coord_x10) true))
(assert (ite (and (= 4 7) (= 8 6)) (<= coord_x8 coord_x11) true))
(assert (ite (and (= 4 7) (= 14 3)) (<= coord_x9 coord_x10) true))
(assert (ite (and (= 4 7) (= 14 6)) (<= coord_x9 coord_x11) true))
(assert (ite (and (= 7 7) (= 3 6)) (<= coord_x10 coord_x11) true))
(assert (= coord_x9 0))
(assert (= coord_y9 0))
(check-sat)
(get-value (coord_x0))
(get-value (coord_y0))
(get-value (coord_x1))
(get-value (coord_y1))
(get-value (coord_x2))
(get-value (coord_y2))
(get-value (coord_x3))
(get-value (coord_y3))
(get-value (coord_x4))
(get-value (coord_y4))
(get-value (coord_x5))
(get-value (coord_y5))
(get-value (coord_x6))
(get-value (coord_y6))
(get-value (coord_x7))
(get-value (coord_y7))
(get-value (coord_x8))
(get-value (coord_y8))
(get-value (coord_x9))
(get-value (coord_y9))
(get-value (coord_x10))
(get-value (coord_y10))
(get-value (coord_x11))
(get-value (coord_y11))
(get-value (l))
